words_hard_train/5019.qaiger
aag 145 24 0 1 121
2
4
8
12
20
22
26
34
46
54
66
74
86
94
110
114
124
132
144
152
230
238
240
274
290
6 3 5
10 6 9
14 11 12
16 10 13
18 15 17
24 20 22
28 22 26
30 23 27
32 29 31
36 33 35
38 32 34
40 37 39
42 24 40
44 43 39
48 31 46
50 30 47
52 49 51
56 53 55
58 52 54
60 57 59
62 45 60
64 63 59
68 51 66
70 50 67
72 69 71
76 73 75
78 72 74
80 77 79
82 65 80
84 83 79
88 71 86
90 70 87
92 89 91
96 93 95
98 92 94
100 97 99
102 84 101
104 85 100
106 103 105
108 18 107
112 16 111
116 113 114
118 112 115
120 117 119
122 105 99
126 91 124
128 90 125
130 127 129
134 131 133
136 130 132
138 135 137
140 123 138
142 141 137
146 129 144
148 128 145
150 147 149
154 151 153
156 150 152
158 155 157
160 142 159
162 143 158
164 161 163
166 120 165
168 109 167
170 121 164
172 168 171
174 17 110
176 175 113
178 122 139
180 179 141
182 177 181
184 176 180
186 183 185
188 25 41
190 189 43
192 191 2
194 7 8
196 195 11
198 64 81
200 199 83
202 196 201
204 193 203
206 2 4
208 207 7
210 44 61
212 211 63
214 209 212
216 204 215
218 197 200
220 19 106
222 219 221
224 216 222
226 187 224
228 172 226
232 149 230
234 148 231
236 233 235
242 238 240
244 239 241
246 243 245
248 246 119
250 247 118
252 249 251
254 236 253
256 237 252
258 255 257
260 163 157
262 259 261
264 258 260
266 263 265
268 190 3
270 21 23
272 271 25
276 272 275
278 273 274
280 277 279
282 269 281
284 208 213
286 282 285
288 267 286
290 228 288
i0 1 x2[1]
i1 1 x2[2]
i2 1 x2[3]
i3 1 x2[4]
i4 1 x1[0]
i5 2 y1[0]
i6 2 y1[1]
i7 1 x1[1]
i8 2 y1[2]
i9 1 x1[2]
i10 2 y1[3]
i11 1 x1[3]
i12 2 y1[4]
i13 1 x1[4]
i14 1 x2[5]
i15 1 x2[6]
i16 2 y1[5]
i17 1 x1[5]
i18 2 y1[6]
i19 1 x1[6]
i20 1 x2[7]
i21 1 x1[7]
i22 2 y1[7]
i23 1 x2[0]
o0 bool[0]
c
simplified
  ==
    subtract
      1 x1
      2 y1
    add
      1
      unary minus
        1 x2
