words_hard_train/5019.qaiger.qdimacs
p cnf 145 364
a 1 2 66 4 37 6 137 10 76 47 17 115 119 55 57 27 0
e 3 5 7 8 9 11 12 13 14 15 16 18 19 20 21 22 23 24 25 26 28 29 30 31 32 33 34 35 36 38 39 40 41 42 43 44 45 46 48 49 50 51 52 53 54 56 58 59 60 61 62 63 64 65 67 68 69 70 71 72 73 74 75 77 78 79 80 81 82 83 84 85 86 87 88 89 90 91 92 93 94 95 96 97 98 99 100 101 102 103 104 105 106 107 108 109 110 111 112 113 114 116 117 118 120 121 122 123 124 125 126 127 128 129 130 131 132 133 134 135 136 138 139 140 141 142 143 144 145 0
1 2 3 0
-1 -3 0
-2 -3 0
-3 4 5 0
3 -5 0
-4 -5 0
5 -6 7 0
-5 -7 0
6 -7 0
-5 6 8 0
5 -8 0
-6 -8 0
7 8 9 0
-7 -9 0
-8 -9 0
-10 -11 12 0
10 -12 0
11 -12 0
-11 -13 14 0
11 -14 0
13 -14 0
11 13 15 0
-11 -15 0
-13 -15 0
14 15 16 0
-14 -16 0
-15 -16 0
16 17 18 0
-16 -18 0
-17 -18 0
-16 -17 19 0
16 -19 0
17 -19 0
18 19 20 0
-18 -20 0
-19 -20 0
-12 -20 21 0
12 -21 0
20 -21 0
21 19 22 0
-21 -22 0
-19 -22 0
15 -23 24 0
-15 -24 0
23 -24 0
-15 23 25 0
15 -25 0
-23 -25 0
24 25 26 0
-24 -26 0
-25 -26 0
26 27 28 0
-26 -28 0
-27 -28 0
-26 -27 29 0
26 -29 0
27 -29 0
28 29 30 0
-28 -30 0
-29 -30 0
22 -30 31 0
-22 -31 0
30 -31 0
31 29 32 0
-31 -32 0
-29 -32 0
25 -33 34 0
-25 -34 0
33 -34 0
-25 33 35 0
25 -35 0
-33 -35 0
34 35 36 0
-34 -36 0
-35 -36 0
36 37 38 0
-36 -38 0
-37 -38 0
-36 -37 39 0
36 -39 0
37 -39 0
38 39 40 0
-38 -40 0
-39 -40 0
32 -40 41 0
-32 -41 0
40 -41 0
41 39 42 0
-41 -42 0
-39 -42 0
35 -43 44 0
-35 -44 0
43 -44 0
-35 43 45 0
35 -45 0
-43 -45 0
44 45 46 0
-44 -46 0
-45 -46 0
46 47 48 0
-46 -48 0
-47 -48 0
-46 -47 49 0
46 -49 0
47 -49 0
48 49 50 0
-48 -50 0
-49 -50 0
-42 50 51 0
42 -51 0
-50 -51 0
42 -50 52 0
-42 -52 0
50 -52 0
51 52 53 0
-51 -53 0
-52 -53 0
-9 53 54 0
9 -54 0
-53 -54 0
-8 55 56 0
8 -56 0
-55 -56 0
56 -57 58 0
-56 -58 0
57 -58 0
-56 57 59 0
56 -59 0
-57 -59 0
58 59 60 0
-58 -60 0
-59 -60 0
52 49 61 0
-52 -61 0
-49 -61 0
45 -62 63 0
-45 -63 0
62 -63 0
-45 62 64 0
45 -64 0
-62 -64 0
63 64 65 0
-63 -65 0
-64 -65 0
65 66 67 0
-65 -67 0
-66 -67 0
-65 -66 68 0
65 -68 0
66 -68 0
67 68 69 0
-67 -69 0
-68 -69 0
61 -69 70 0
-61 -70 0
69 -70 0
70 68 71 0
-70 -71 0
-68 -71 0
64 -72 73 0
-64 -73 0
72 -73 0
-64 72 74 0
64 -74 0
-72 -74 0
73 74 75 0
-73 -75 0
-74 -75 0
75 76 77 0
-75 -77 0
-76 -77 0
-75 -76 78 0
75 -78 0
76 -78 0
77 78 79 0
-77 -79 0
-78 -79 0
-71 79 80 0
71 -80 0
-79 -80 0
71 -79 81 0
-71 -81 0
79 -81 0
80 81 82 0
-80 -82 0
-81 -82 0
-60 82 83 0
60 -83 0
-82 -83 0
54 83 84 0
-54 -84 0
-83 -84 0
60 -82 85 0
-60 -85 0
82 -85 0
-84 85 86 0
84 -86 0
-85 -86 0
8 -55 87 0
-8 -87 0
55 -87 0
87 56 88 0
-87 -88 0
-56 -88 0
-61 69 89 0
61 -89 0
-69 -89 0
89 70 90 0
-89 -90 0
-70 -90 0
88 90 91 0
-88 -91 0
-90 -91 0
-88 -90 92 0
88 -92 0
90 -92 0
91 92 93 0
-91 -93 0
-92 -93 0
12 20 94 0
-12 -94 0
-20 -94 0
94 21 95 0
-94 -95 0
-21 -95 0
95 -1 96 0
-95 -96 0
1 -96 0
3 -4 97 0
-3 -97 0
4 -97 0
97 5 98 0
-97 -98 0
-5 -98 0
-32 40 99 0
32 -99 0
-40 -99 0
99 41 100 0
-99 -100 0
-41 -100 0
-98 100 101 0
98 -101 0
-100 -101 0
96 101 102 0
-96 -102 0
-101 -102 0
-1 -2 103 0
1 -103 0
2 -103 0
103 3 104 0
-103 -104 0
-3 -104 0
-22 30 105 0
22 -105 0
-30 -105 0
105 31 106 0
-105 -106 0
-31 -106 0
104 -106 107 0
-104 -107 0
106 -107 0
-102 107 108 0
102 -108 0
-107 -108 0
98 -100 109 0
-98 -109 0
100 -109 0
9 -53 110 0
-9 -110 0
53 -110 0
109 110 111 0
-109 -111 0
-110 -111 0
-108 -111 112 0
108 -112 0
111 -112 0
93 -112 113 0
-93 -113 0
112 -113 0
-86 -113 114 0
86 -114 0
113 -114 0
74 -115 116 0
-74 -116 0
115 -116 0
-74 115 117 0
74 -117 0
-115 -117 0
116 117 118 0
-116 -118 0
-117 -118 0
-119 -120 121 0
119 -121 0
120 -121 0
119 120 122 0
-119 -122 0
-120 -122 0
121 122 123 0
-121 -123 0
-122 -123 0
-123 59 124 0
123 -124 0
-59 -124 0
123 -59 125 0
-123 -125 0
59 -125 0
124 125 126 0
-124 -126 0
-125 -126 0
-118 126 127 0
118 -127 0
-126 -127 0
118 -126 128 0
-118 -128 0
126 -128 0
127 128 129 0
-127 -129 0
-128 -129 0
81 78 130 0
-81 -130 0
-78 -130 0
129 130 131 0
-129 -131 0
-130 -131 0
-129 -130 132 0
129 -132 0
130 -132 0
131 132 133 0
-131 -133 0
-132 -133 0
-95 1 134 0
95 -134 0
-1 -134 0
10 11 135 0
-10 -135 0
-11 -135 0
135 12 136 0
-135 -136 0
-12 -136 0
-136 137 138 0
136 -138 0
-137 -138 0
136 -137 139 0
-136 -139 0
137 -139 0
138 139 140 0
-138 -140 0
-139 -140 0
134 140 141 0
-134 -141 0
-140 -141 0
-104 106 142 0
104 -142 0
-106 -142 0
-141 142 143 0
141 -143 0
-142 -143 0
133 -143 144 0
-133 -144 0
143 -144 0
-114 -144 145 0
114 -145 0
144 -145 0
145 0
